data;

param num_top:=3;

#nodes and edges of the physical network
param n := 10;

set E := (1,2) (1,3) (1,7) (2,4) (2,7) (3,5) (4,8) (5,6) (5,7) (6,7) (6,9) (7,8) (7,9) (8,10) (9,10) ;

#nodes and edges of the virtual networks
set Nl[1] := 4 7 6 3 9 ;
set Nl[2] := 3 2 7 5 10 ;
set Nl[3] := 1 5 4 2 3 ;

set El[1] := (4,7) (6,7) (3,6) (3,9) (4,9) (3,4) (3,7) (6,9) (4,6) (7,9) ;
set El[2] := (2,3) (2,7) (5,7) (5,10) (3,10) (3,7) (2,5) (2,10) (7,10) (3,5) ;
set El[3] := (1,5) (4,5) (2,4) (2,3) (1,3) (1,4) (2,5) (3,5) (1,2) (3,4) ;
